 &control
    calculation = 'bands',
    restart_mode = 'restart',
   prefix = 'graphane_H_oneside_bands'
   outdir = '/scratch/erich/graphane_H_oneside_bands'
    verbosity         = 'high'
    wf_collect        = .true.
    pseudo_dir='/opt/sharcnet/espresso/4.2.1/pseudo'
 /
 &system 
    ibrav             =  8
    celldm(1)         =  9.30
    celldm(2)         =  1.732050808
    celldm(3)         =  4.5
    nat               =  24
    ntyp              =  2
    nosym             = .true.
    ecutwfc           =  45
    nbnd              =  40
    occupations = 'smearing' ,
    degauss = 0.020 ,
    smearing = 'methfessel-paxton' ,
 /
 &electrons
 /
ATOMIC_SPECIES
 H   0.5 H.pz-vbc.UPF
 C   0.5 C.pz-vbc.UPF
ATOMIC_POSITIONS (angstrom)
H       -0.000000238   0.000685612  13.610133901
H        2.460673809   0.000695595  13.610130529
H       -0.000000238   4.262342713  13.610801519
H        2.460673809   4.262346997  13.610797659
H        1.230342277   2.129990649  13.609930868
H        3.691005580   2.129990649  13.609930868
H        1.230339128   6.395206831  13.610472008
H        3.691008729   6.395206831  13.610472008
C       -0.000000238   0.002201348  12.386787519
C        2.460673809   0.002218444  12.386762137
C       -0.000000238   4.264499038  12.390732089
C        2.460673809   4.264497057  12.390724548
C       -0.000000238   1.418838162  12.155008822
C        2.460673809   1.418843108  12.155032948
C       -0.000000238   5.679166106  12.146506322
C        2.460673809   5.679209569  12.146536485
C        1.230323469   2.132479410  12.387303042
C        3.691024388   2.132479410  12.387303042
C        1.230322557   6.396015040  12.390582268
C        3.691025300   6.396015040  12.390582268
C        1.230338330   3.549007796  12.146212414
C        3.691009527   3.549007796  12.146212414
C        1.230331872   7.810318902  12.154042440
C        3.691015985   7.810318902  12.154042440
K_POINTS crystal
 92
  0.3330000      0.3330000      0.0000000E+00  1
  0.3250000      0.3250000      0.0000000E+00  1
  0.3170000      0.3170000      0.0000000E+00  1
  0.3080000      0.3080000      0.0000000E+00  1
  0.3000000      0.3000000      0.0000000E+00  1
  0.2920000      0.2920000      0.0000000E+00  1
  0.2830000      0.2830000      0.0000000E+00  1
  0.2750000      0.2750000      0.0000000E+00  1
  0.2670000      0.2670000      0.0000000E+00  1
  0.2580000      0.2580000      0.0000000E+00  1
  0.2500000      0.2500000      0.0000000E+00  1
  0.2420000      0.2420000      0.0000000E+00  1
  0.2330000      0.2330000      0.0000000E+00  1
  0.2250000      0.2250000      0.0000000E+00  1
  0.2170000      0.2170000      0.0000000E+00  1
  0.2080000      0.2080000      0.0000000E+00  1
  0.2000000      0.2000000      0.0000000E+00  1
  0.1920000      0.1920000      0.0000000E+00  1
  0.1830000      0.1830000      0.0000000E+00  1
  0.1750000      0.1750000      0.0000000E+00  1
  0.1670000      0.1670000      0.0000000E+00  1
  0.1580000      0.1580000      0.0000000E+00  1
  0.1500000      0.1500000      0.0000000E+00  1
  0.1420000      0.1420000      0.0000000E+00  1
  0.1330000      0.1330000      0.0000000E+00  1
  0.1250000      0.1250000      0.0000000E+00  1
  0.1170000      0.1170000      0.0000000E+00  1
  0.1080000      0.1080000      0.0000000E+00  1
  0.1000000      0.1000000      0.0000000E+00  1
  9.1700003E-02  9.1700003E-02  0.0000000E+00  1
  8.3300002E-02  8.3300002E-02  0.0000000E+00  1
  7.5000003E-02  7.5000003E-02  0.0000000E+00  1
  6.6699997E-02  6.6699997E-02  0.0000000E+00  1
  5.8300000E-02  5.8300000E-02  0.0000000E+00  1
  5.0000001E-02  5.0000001E-02  0.0000000E+00  1
  4.1700002E-02  4.1700002E-02  0.0000000E+00  1
  3.3300001E-02  3.3300001E-02  0.0000000E+00  1
  2.5000000E-02  2.5000000E-02  0.0000000E+00  1
  1.6700000E-02  1.6700000E-02  0.0000000E+00  1
  8.3299996E-03  8.3299996E-03  0.0000000E+00  1
  0.0000000E+00  0.0000000E+00  0.0000000E+00  1
  0.0000000E+00  1.5600000E-02  0.0000000E+00  1
  0.0000000E+00  3.1300001E-02  0.0000000E+00  1
  0.0000000E+00  4.6900000E-02  0.0000000E+00  1
  0.0000000E+00  6.2500000E-02  0.0000000E+00  1
  0.0000000E+00  7.8100003E-02  0.0000000E+00  1
  0.0000000E+00  9.3800001E-02  0.0000000E+00  1
  0.0000000E+00  0.1090000      0.0000000E+00  1
  0.0000000E+00  0.1250000      0.0000000E+00  1
  0.0000000E+00  0.1410000      0.0000000E+00  1
  0.0000000E+00  0.1560000      0.0000000E+00  1
  0.0000000E+00  0.1720000      0.0000000E+00  1
  0.0000000E+00  0.1880000      0.0000000E+00  1
  0.0000000E+00  0.2030000      0.0000000E+00  1
  0.0000000E+00  0.2190000      0.0000000E+00  1
  0.0000000E+00  0.2340000      0.0000000E+00  1
  0.0000000E+00  0.2500000      0.0000000E+00  1
  0.0000000E+00  0.2660000      0.0000000E+00  1
  0.0000000E+00  0.2810000      0.0000000E+00  1
  0.0000000E+00  0.2970000      0.0000000E+00  1
  0.0000000E+00  0.3130000      0.0000000E+00  1
  0.0000000E+00  0.3280000      0.0000000E+00  1
  0.0000000E+00  0.3440000      0.0000000E+00  1
  0.0000000E+00  0.3590000      0.0000000E+00  1
  0.0000000E+00  0.3750000      0.0000000E+00  1
  0.0000000E+00  0.3910000      0.0000000E+00  1
  0.0000000E+00  0.4060000      0.0000000E+00  1
  0.0000000E+00  0.4220000      0.0000000E+00  1
  0.0000000E+00  0.4380000      0.0000000E+00  1
  0.0000000E+00  0.4530000      0.0000000E+00  1
  0.0000000E+00  0.4690000      0.0000000E+00  1
  0.0000000E+00  0.4840000      0.0000000E+00  1
  0.0000000E+00  0.5000000      0.0000000E+00  1
  1.7500000E-02  0.4910000      0.0000000E+00  1
  3.5100002E-02  0.4820000      0.0000000E+00  1
  5.2600000E-02  0.4740000      0.0000000E+00  1
  7.0200004E-02  0.4650000      0.0000000E+00  1
  8.7700002E-02  0.4560000      0.0000000E+00  1
  0.1050000      0.4470000      0.0000000E+00  1
  0.1230000      0.4390000      0.0000000E+00  1
  0.1400000      0.4300000      0.0000000E+00  1
  0.1580000      0.4210000      0.0000000E+00  1
  0.1750000      0.4120000      0.0000000E+00  1
  0.1930000      0.4040000      0.0000000E+00  1
  0.2110000      0.3950000      0.0000000E+00  1
  0.2280000      0.3860000      0.0000000E+00  1
  0.2460000      0.3770000      0.0000000E+00  1
  0.2630000      0.3680000      0.0000000E+00  1
  0.2810000      0.3600000      0.0000000E+00  1
  0.2980000      0.3510000      0.0000000E+00  1
  0.3160000      0.3420000      0.0000000E+00  1
  0.3330000      0.3330000      0.0000000E+00  1

