ndtset 1
xcart
  2.453516403 4.368648794 20.484744782
 2.453769087 6.221587035 25.885566530
 0.112439439 -0.073668649 23.113154097
 4.796143274 -0.073658405 23.113017804
 0.082190824 8.021497181 23.300895180
 4.826137742 8.021485686 23.300957088
 0.082135812 2.567923352 23.068745260
 4.826122554 2.567951619 23.068480245
 0.112486338 10.663086353 23.254953916
 4.796153163 10.663088235 23.254958901
 2.454085975 4.003050882 22.574026388
 7.104150038 3.908490060 23.174505245
 2.454346540 12.036393032 23.245727877
 7.104342373 12.008215692 23.196934443
 2.454149071 6.586505692 23.796139397
 7.104178556 6.680867948 23.195912785
 2.454326375 14.661200776 23.121755134
 7.104316304 14.689290357 23.170881469




chkprim     1 
acell  9.299979858 16.016844817 35
rprim      0.8660254037844385 -0.5 0.0 
                 0.0           1.0 0.0 
                 0.0           0.0 1.0

ntypat    2 
znucl     1 6 

natom     18
typat     1 1 2 2 2 2 2 2 2 2 2 2 2 2 2 2 2 2 

so_psp         2 2
nspinor        2 2
toldfe1        1.0d-6
kptopt1        1

nshiftk1 1 
shiftk1 0.0 0.0 0.5 
nsppol         1
 
ngkpt1   7 7 7


ecut   10


diemac       12.0



nstep1              200
prtwf1              1 
prtden1             0


prtvol -1
