&control
    calculation       = 'relax'
    restart_mode      = 'restart'
   prefix = '16C_8H_top_only_optimization'
    forc_conv_thr = 1.d-4,
   outdir = '/scratch/erich/16C_8H_top_only_optimization'
    pseudo_dir='/opt/sharcnet/espresso/4.2.1/pseudo/' 
/
 &system
    ibrav             =  8
    celldm(1)         =  9.30
    celldm(2)         =  1.732050808
    celldm(3)         =  4.5
    nat               =  24
    ntyp              =  2
    nosym             = .false.
    ecutwfc           =  45
 /
 &electrons
    mixing_beta = 0.7
   conv_thr =  1.0d-5
 /
  &ions
    pot_extrapolation = "second_order",
    wfc_extrapolation = "second_order",
 /
ATOMIC_SPECIES
 H   0.5 H.pz-vbc.UPF
 C   0.5 C.pz-vbc.UPF
ATOMIC_POSITIONS (angstrom)
H       -0.000000238  -0.000005410  13.612187386
H        2.460673809  -0.000005410  13.612187386
H       -0.000000238   4.262006760  13.612187386
H        2.460673809   4.262006760  13.612187386
H        1.230336905   2.131008625  13.612180710
H        3.691010952   2.131008625  13.612180710
H        1.230336905   6.393021107  13.612180710
H        3.691010952   6.393021107  13.612180710
C       -0.000000238   0.000000229  12.495553970
C        2.460673809   0.000000229  12.495553970
C       -0.000000238   4.262012482  12.495553970
C        2.460673809   4.262012482  12.495553970
C       -0.000000238   1.420670629  12.041896820
C        2.460673809   1.420670629  12.041896820
C       -0.000000238   5.682682991  12.041896820
C        2.460673809   5.682682991  12.041896820
C        1.230336905   2.131008148  12.495545387
C        3.691010952   2.131008148  12.495545387
C        1.230336905   6.393020630  12.495545387
C        3.691010952   6.393020630  12.495545387
C        1.230336905   3.551676035  12.041895866
C        3.691010952   3.551676035  12.041895866
C        1.230336905   7.813688278  12.041895866
C        3.691010952   7.813688278  12.041895866
K_POINTS {automatic}
12 12 1 0 0 0

